examples/poly/matrix-3-all-21.smt2
(set-info :smt-lib-version 2.6)
(set-logic QF_NRA)
(set-info :source |
From termination analysis of term rewriting.

Submitted by Harald Roman Zankl <Harald.Zankl@uibk.ac.at>

|)
(set-info :category "industrial")

(declare-fun x20 () Real)
(declare-fun x41 () Real)
(declare-fun x4 () Real)
(declare-fun x21 () Real)
(declare-fun x2 () Real)
(declare-fun x36 () Real)


(assert (>= x20 0))
(assert (>= x41 0))
(assert (>= x4 0))
(assert (>= x21 0))
(assert (>= x2 0))
(assert (>= x36 0))

(assert (let ((?v_0 (+ 1 (+ (+ (* 1 x4) (* x2 2)) (* 1 0)))) (?v_2 (+ (+ (* 1 1) (* x2 1)) (* 1 0))) (?v_3 (+ (+ (* 1 1) (* x2 1)) (* 1 2))) (?v_4 (+ (+ (* 1 2) (* x2 1)) (* 1 1))) (?v_1 (+ 1 (+ (+ (* 1 x20) (* x2 x21)) (* 1 0))))) (let ((?v_9 (and (and (and (> ?v_0 1) (>= ?v_0 1)) (and (and (>= ?v_2 1) (>= ?v_3 1)) (>= ?v_4 1))) (and (and (> ?v_0 ?v_1) (>= ?v_0 ?v_1)) (and (and (>= ?v_2 (+ (+ (* 1 1) (* x2 1)) (* 1 0))) (>= ?v_3 (+ (+ (* 1 1) (* x2 1)) (* 1 2)))) (>= ?v_4 (+ (+ (* 1 2) (* x2 1)) (* 1 1))))))) (?v_6 (+ 1 (+ (+ (* 1 x20) (* x36 x21)) (* 1 0)))) (?v_5 (+ 1 (+ (+ (* 1 x4) (* x36 2)) (* 1 0)))) (?v_7 (+ 1 (+ (+ (* 0 x20) (* 1 x21)) (* 1 0)))) (?v_8 (+ 1 (+ (+ (* x41 x20) (* 1 x21)) (* 1 0))))) (and (and (and (and ?v_9 (and (and (> ?v_5 ?v_6) (and (and (>= ?v_5 ?v_6) (>= (+ 1 (+ (+ (* 0 x4) (* 1 2)) (* 1 0))) ?v_7)) (>= (+ 1 (+ (+ (* x41 x4) (* 1 2)) (* 1 0))) ?v_8))) (and (and (and (and (and (and (and (and (>= (+ (+ (* 1 1) (* x36 1)) (* 1 0)) (+ (+ (* 1 1) (* x36 1)) (* 1 0))) (>= (+ (+ (* 1 1) (* x36 1)) (* 1 2)) (+ (+ (* 1 1) (* x36 1)) (* 1 2)))) (>= (+ (+ (* 1 2) (* x36 1)) (* 1 1)) (+ (+ (* 1 2) (* x36 1)) (* 1 1)))) (>= (+ (+ (* 0 1) (* 1 1)) (* 1 0)) (+ (+ (* 0 1) (* 1 1)) (* 1 0)))) (>= (+ (+ (* 0 1) (* 1 1)) (* 1 2)) (+ (+ (* 0 1) (* 1 1)) (* 1 2)))) (>= (+ (+ (* 0 2) (* 1 1)) (* 1 1)) (+ (+ (* 0 2) (* 1 1)) (* 1 1)))) (>= (+ (+ (* x41 1) (* 1 1)) (* 1 0)) (+ (+ (* x41 1) (* 1 1)) (* 1 0)))) (>= (+ (+ (* x41 1) (* 1 1)) (* 1 2)) (+ (+ (* x41 1) (* 1 1)) (* 1 2)))) (>= (+ (+ (* x41 2) (* 1 1)) (* 1 1)) (+ (+ (* x41 2) (* 1 1)) (* 1 1)))))) (and (> ?v_6 1) (and (and (>= ?v_6 1) (>= ?v_7 1)) (>= ?v_8 1)))) (and (and (> x20 x4) (and (and (>= x20 x4) (>= x21 2)) (>= 0 0))) (and (and (and (and (and (and (and (and (>= 1 1) (>= 1 1)) (>= 2 2)) (>= 1 1)) (>= 1 1)) (>= 1 1)) (>= 0 0)) (>= 2 2)) (>= 1 1)))) ?v_9))))
(check-sat)
(exit)
