z3_origin/matrix-3-all-21.txt
unsat
(:max-memory         18.53
 :memory             18.43
 :nlsat-arith-var    47
 :nlsat-atoms        108
 :nlsat-bool-var     5
 :nlsat-clauses      88
 :nlsat-conflicts    35
 :nlsat-decisions    3
 :nlsat-propagations 122
 :nlsat-stages       36
 :num-allocs         77814
 :rlimit-count       10321
 :time               0.01
 :total-time         0.02)
